NAME : portcgen-15-9
COMMENT : portcgen N=15, seed=9
TYPE : TSP
DIMENSION : 15
EDGE_WEIGHT_TYPE : EUC_2D
NODE_COORD_SECTION
1 -8011 309300
2 408995 159844
3 -294483 207594
4 78363 -97380
5 -51298 -147555
6 93275 -59764
7 -211156 176817
8 -147536 -48503
9 185967 7054
10 -146848 107318
11 57325 258050
12 -71540 375757
13 376487 -103993
14 -46813 33466
15 594892 27654
